This is Ipopt version 3.12.3, running with linear solver mumps.
NOTE: Other linear solvers might be more efficient (see Ipopt documentation).

Number of nonzeros in equality constraint Jacobian...:    74270
Number of nonzeros in inequality constraint Jacobian.:    16356
Number of nonzeros in Lagrangian Hessian.............:    19530

Total number of variables............................:    16356
                     variables with only lower bounds:        0
                variables with lower and upper bounds:        0
                     variables with only upper bounds:        0
Total number of equality constraints.................:    14700
Total number of inequality constraints...............:    16356
        inequality constraints with only lower bounds:        0
   inequality constraints with lower and upper bounds:    16356
        inequality constraints with only upper bounds:        0

iter    objective    inf_pr   inf_du lg(mu)  ||d||  lg(rg) alpha_du alpha_pr  ls
   0 1.6100000e-005 5.72e+002 9.69e-007  -1.0 0.00e+000    -  0.00e+000 0.00e+000   0
   1 6.8946274e+001 2.25e+002 1.24e+001  -1.0 2.48e+000    -  7.05e-002 1.00e+000h  1
   2 4.0050221e+001 1.19e+002 8.38e+000  -1.0 5.00e-001   0.0 7.77e-001 1.00e+000f  1
   3 2.4744187e+001 1.90e+002 3.10e+001  -1.0 1.15e+000  -0.5 2.83e-001 1.00e+000f  1
   4 2.2947870e+001 2.67e+001 7.34e+000  -1.0 5.66e-001  -1.0 5.50e-001 1.00e+000f  1
   5 2.3843871e+001 5.42e+000 6.16e-001  -1.0 3.97e-001  -0.5 1.00e+000 1.00e+000f  1
   6 2.4600375e+001 1.97e+001 2.56e-001  -1.0 7.60e-001  -1.0 1.00e+000 1.00e+000f  1
   7 1.1190528e+001 7.78e+000 1.43e-001  -1.7 1.39e-001  -0.6 1.00e+000 1.00e+000f  1
   8 6.0122884e+000 8.58e+000 8.15e-002  -2.5 1.40e-001  -1.1 1.00e+000 1.00e+000f  1
   9 5.2957681e+000 1.66e+000 1.34e-002  -2.5 2.22e-001  -1.5 1.00e+000 1.00e+000h  1
iter    objective    inf_pr   inf_du lg(mu)  ||d||  lg(rg) alpha_du alpha_pr  ls
  10 4.9327733e+000 2.97e+000 1.18e-002  -2.5 3.29e-001  -2.0 1.00e+000 1.00e+000h  1
  11 4.7295950e+000 4.57e+000 4.12e-003  -2.5 6.20e-001  -2.5 1.00e+000 1.00e+000h  1
  12 4.6983579e+000 6.40e-001 1.87e-003  -2.5 2.15e-001  -2.1 1.00e+000 1.00e+000h  1
  13 3.9143253e+000 6.40e+000 4.14e-002  -3.8 2.01e-001  -2.5 8.64e-001 1.00e+000f  1
  14 2.0686559e+000 4.08e+001 4.97e-003  -3.8 4.75e-001  -3.0 9.03e-001 1.00e+000h  1
  15 1.1412419e+000 5.41e+001 2.50e-003  -3.8 8.95e-001  -3.5 1.00e+000 1.00e+000h  1
  16 1.0129580e+000 1.65e+001 1.09e-003  -3.8 8.79e-001  -4.0 1.00e+000 1.00e+000h  1
  17 1.0094581e+000 2.48e-001 7.05e-005  -3.8 2.34e-001  -3.5 1.00e+000 1.00e+000h  1
  18 1.0088172e+000 1.67e+000 9.59e-005  -3.8 3.31e-001  -4.0 1.00e+000 1.00e+000h  1
  19 1.0087250e+000 2.18e-001 2.74e-005  -3.8 1.04e-001  -3.6 1.00e+000 1.00e+000h  1
iter    objective    inf_pr   inf_du lg(mu)  ||d||  lg(rg) alpha_du alpha_pr  ls
  20 1.0086479e+000 3.91e+000 1.15e-004  -3.8 3.49e-001  -4.1 1.00e+000 1.00e+000h  1
  21 1.0085603e+000 7.49e-001 8.70e-005  -3.8 1.38e-001  -3.6 1.00e+000 1.00e+000h  1
  22 1.0085077e+000 2.49e+000 2.98e-005  -3.8 2.39e-001    -  1.00e+000 1.00e+000h  1
  23 1.0084938e+000 2.86e-002 9.32e-007  -3.8 3.42e-002    -  1.00e+000 1.00e+000h  1
  24 1.0084935e+000 5.60e-005 1.48e-009  -3.8 7.22e-004    -  1.00e+000 1.00e+000h  1
  25 6.2943492e-001 3.27e+001 4.04e-003  -5.7 2.15e+000    -  7.61e-001 6.60e-001f  1
  26 3.5675082e-001 7.92e+002 5.23e-003  -5.7 1.66e+000    -  1.83e-001 8.91e-001h  1
  27 2.9141843e-001 1.31e+002 3.72e-003  -5.7 1.35e+000    -  4.26e-001 8.52e-001h  1
  28 2.7654821e-001 7.34e+001 1.94e-003  -5.7 1.16e+000    -  4.71e-001 4.49e-001h  1
  29 2.5514032e-001 1.17e+001 2.88e-003  -5.7 5.60e-001    -  1.11e-001 9.67e-001h  1
iter    objective    inf_pr   inf_du lg(mu)  ||d||  lg(rg) alpha_du alpha_pr  ls
  30 2.5043494e-001 1.37e+001 1.61e-003  -5.7 4.84e-001    -  5.06e-001 8.51e-001h  1
  31 2.4797166e-001 4.41e+000 8.12e-004  -5.7 2.77e-001    -  5.76e-001 1.00e+000h  1
  32 2.4732320e-001 1.21e+000 1.95e-005  -5.7 1.52e-001  -4.1 1.00e+000 1.00e+000h  1
  33 2.4715635e-001 2.96e-001 1.74e-005  -5.7 8.70e-002  -3.7 1.00e+000 1.00e+000h  1
  34 2.4700317e-001 5.94e+000 1.25e-004  -5.7 3.67e-001  -4.2 1.00e+000 1.00e+000h  1
  35 2.4675181e-001 2.10e+001 2.06e-004  -5.7 5.41e-001  -4.7 1.00e+000 1.00e+000H  1
  36 2.4687317e-001 9.98e+000 2.00e-004  -5.7 3.08e-001    -  1.00e+000 1.00e+000h  1
  37 2.4679177e-001 7.65e+000 5.03e-004  -5.7 5.73e-001    -  1.00e+000 1.00e+000h  1
  38 2.4677961e-001 9.89e+000 4.40e-004  -5.7 4.08e-001  -5.1 1.00e+000 1.00e+000h  1
  39 2.4669128e-001 1.50e+000 6.52e-004  -5.7 3.57e-001    -  1.00e+000 1.00e+000h  1
iter    objective    inf_pr   inf_du lg(mu)  ||d||  lg(rg) alpha_du alpha_pr  ls
  40 2.4670487e-001 7.30e-001 4.83e-005  -5.7 1.14e-001    -  1.00e+000 1.00e+000h  1
  41 2.4670821e-001 3.15e-002 1.34e-005  -5.7 6.66e-002    -  1.00e+000 1.00e+000h  1
  42 2.4670877e-001 4.92e-004 3.46e-008  -5.7 5.96e-003    -  1.00e+000 1.00e+000h  1
  43 2.4670877e-001 7.24e-008 2.21e-012  -5.7 5.81e-005    -  1.00e+000 1.00e+000h  1
  44 2.4283397e-001 1.61e+000 2.16e-004  -7.0 2.76e-001    -  5.66e-001 4.40e-001f  1
  45 2.4014054e-001 4.95e+000 6.27e-004  -7.0 7.58e-001    -  1.61e-001 5.58e-001h  1
  46 2.3899057e-001 2.10e+000 7.53e-004  -7.0 7.27e-002  -3.8 9.45e-001 5.87e-001h  1
  47 2.3818325e-001 5.17e+000 4.84e-004  -7.0 3.90e-001  -4.3 1.00e+000 8.21e-001h  1
  48 2.3809498e-001 3.35e+000 1.00e-003  -7.0 1.78e-001  -3.9 1.00e+000 3.58e-001h  1
  49 2.3806773e-001 2.80e+000 8.50e-004  -7.0 1.34e+000  -4.3 4.85e-001 1.69e-001h  1
iter    objective    inf_pr   inf_du lg(mu)  ||d||  lg(rg) alpha_du alpha_pr  ls
  50 2.3789953e-001 7.50e+000 7.51e-004  -7.0 3.30e-001  -3.9 1.00e+000 1.00e+000h  1
  51 2.3789387e-001 3.90e+001 6.60e-004  -7.0 1.32e+000  -4.4 2.64e-001 1.21e-001h  2
  52 2.3787549e-001 1.26e+001 2.03e-004  -7.0 8.65e-002    -  1.00e+000 6.96e-001h  1
  53 2.3787181e-001 2.81e-001 2.55e-006  -7.0 2.17e-002    -  1.00e+000 1.00e+000h  1
  54 2.3787121e-001 3.60e-004 7.04e-008  -7.0 8.92e-003    -  1.00e+000 1.00e+000h  1
  55 2.3787114e-001 6.86e-006 2.94e-009  -7.0 1.19e-003    -  1.00e+000 1.00e+000h  1
  56 2.3787114e-001 5.64e-009 6.02e-012  -7.0 3.52e-005    -  1.00e+000 1.00e+000h  1

Number of Iterations....: 56

                                   (scaled)                 (unscaled)
Objective...............:  2.3787114192247530e-001   2.3787114192247530e-001
Dual infeasibility......:  6.0166640228088162e-012   6.0166640228088162e-012
Constraint violation....:  9.3801592485169849e-010   5.6361715294883652e-009
Complementarity.........:  9.0911654029424511e-008   9.0911654029424511e-008
Overall NLP error.......:  9.0911654029424511e-008   9.0911654029424511e-008


Number of objective function evaluations             = 62
Number of objective gradient evaluations             = 57
Number of equality constraint evaluations            = 62
Number of inequality constraint evaluations          = 62
Number of equality constraint Jacobian evaluations   = 57
Number of inequality constraint Jacobian evaluations = 57
Number of Lagrangian Hessian evaluations             = 56
Total CPU secs in IPOPT (w/o function evaluations)   =      5.961
Total CPU secs in NLP function evaluations           =      1.353

EXIT: Optimal Solution Found.
               t_proc [s]   t_wall [s]    n_eval
       nlp_f        0.023        0.018        62
       nlp_g         0.11        0.114        62
  nlp_grad_f        0.028         0.03        58
  nlp_hess_l        0.606        0.609        56
   nlp_jac_g        0.586        0.585        58
      solver         7.32         7.32         1
